c 213_3_checker_5cl.cnf
c
c field = 213
c formula set type = 3_checker_5cl
c
p cnf 5 8
420 
422 
426 
-429 
-430 
421 
423 
427 
-428 
-431 
422 
426 
428 
-421 
-430 
423 
427 
429 
-420 
-431 
334 
364 
394 
-305 
-274 
335 
365 
395 
-304 
-275 
340 
368 
396 
-313 
-284 
341 
369 
397 
-312 
-285 
